50, 11254
409, 408
542, 540
863, 861
177, 177
226, 225
30, 30
117, 117
9, 9
157, 156
514, 513
990, 990
694, 693
379, 378
406, 405
692, 690
327, 327
74, 72
842, 840
618, 618
113, 111
71, 69
95, 93
959, 957
108, 108
626, 624
970, 969
36, 36
386, 384
478, 477
917, 915
189, 189
259, 258
248, 246
50, 48
674, 672
817, 816
437, 435
38, 36
714, 714
738, 738
654, 654
329, 327
831, 831
631, 630
590, 588
541, 540
234, 234
456, 456
795, 795
684, 684
